NAME: random-88-25248
TYPE: TSP
COMMENT: size=88 seed=25248
DIMENSION: 178
EDGE_WEIGHT_TYPE: EUC_2D
NODE_COORD_SECTION
+0 136 65
-0 136 65
+1 843 840
-1 923 811
+2 854 279
-2 866 162
+3 956 232
-3 973 413
+4 681 274
-4 360 287
+5 764 579
-5 942 259
+6 372 343
-6 865 974
+7 927 239
-7 55 627
+8 954 110
-8 32 295
+9 908 193
-9 5 680
+10 477 527
-10 949 388
+11 777 515
-11 835 529
+12 517 890
-12 504 477
+13 643 932
-13 374 179
+14 651 0
-14 555 681
+15 576 682
-15 507 14
+16 878 807
-16 103 554
+17 481 670
-17 177 682
+18 715 640
-18 895 150
+19 845 120
-19 178 350
+20 220 557
-20 192 94
+21 329 942
-21 604 387
+22 450 106
-22 735 606
+23 526 263
-23 668 95
+24 180 414
-24 671 623
+25 693 445
-25 611 550
+26 969 633
-26 323 858
+27 941 697
-27 392 164
+28 466 17
-28 408 331
+29 865 915
-29 596 605
+30 321 132
-30 787 364
+31 294 177
-31 64 561
+32 639 577
-32 698 959
+33 971 602
-33 789 125
+34 161 148
-34 633 645
+35 667 154
-35 497 356
+36 346 880
-36 460 878
+37 925 390
-37 451 849
+38 806 291
-38 772 415
+39 919 506
-39 775 323
+40 225 372
-40 261 203
+41 772 357
-41 664 817
+42 234 159
-42 184 792
+43 455 559
-43 594 392
+44 717 515
-44 373 591
+45 352 723
-45 128 938
+46 812 682
-46 782 124
+47 699 262
-47 706 286
+48 54 193
-48 299 942
+49 476 903
-49 868 509
+50 947 497
-50 683 449
+51 292 432
-51 272 948
+52 595 365
-52 824 899
+53 430 752
-53 467 332
+54 632 310
-54 6 146
+55 690 926
-55 801 486
+56 452 304
-56 273 748
+57 302 127
-57 189 143
+58 61 474
-58 850 259
+59 609 853
-59 627 594
+60 8 846
-60 852 686
+61 131 516
-61 73 718
+62 806 121
-62 607 990
+63 709 395
-63 922 290
+64 887 534
-64 934 773
+65 906 19
-65 843 879
+66 409 239
-66 239 503
+67 14 561
-67 736 19
+68 179 829
-68 547 419
+69 446 815
-69 498 619
+70 689 781
-70 971 528
+71 825 176
-71 589 476
+72 166 497
-72 474 638
+73 23 460
-73 497 334
+74 971 681
-74 556 946
+75 178 82
-75 352 944
+76 225 471
-76 803 624
+77 125 349
-77 749 883
+78 841 133
-78 163 365
+79 219 274
-79 53 726
+80 261 250
-80 258 802
+81 408 408
-81 269 200
+82 928 758
-82 927 995
+83 962 938
-83 79 823
+84 995 255
-84 175 939
+85 273 809
-85 15 843
+86 77 133
-86 743 809
+87 334 161
-87 792 313
+88 249 3
-88 963 5
PRECEDENCE_SECTION
+0 -0
+1 -1
+2 -2
+3 -3
+4 -4
+5 -5
+6 -6
+7 -7
+8 -8
+9 -9
+10 -10
+11 -11
+12 -12
+13 -13
+14 -14
+15 -15
+16 -16
+17 -17
+18 -18
+19 -19
+20 -20
+21 -21
+22 -22
+23 -23
+24 -24
+25 -25
+26 -26
+27 -27
+28 -28
+29 -29
+30 -30
+31 -31
+32 -32
+33 -33
+34 -34
+35 -35
+36 -36
+37 -37
+38 -38
+39 -39
+40 -40
+41 -41
+42 -42
+43 -43
+44 -44
+45 -45
+46 -46
+47 -47
+48 -48
+49 -49
+50 -50
+51 -51
+52 -52
+53 -53
+54 -54
+55 -55
+56 -56
+57 -57
+58 -58
+59 -59
+60 -60
+61 -61
+62 -62
+63 -63
+64 -64
+65 -65
+66 -66
+67 -67
+68 -68
+69 -69
+70 -70
+71 -71
+72 -72
+73 -73
+74 -74
+75 -75
+76 -76
+77 -77
+78 -78
+79 -79
+80 -80
+81 -81
+82 -82
+83 -83
+84 -84
+85 -85
+86 -86
+87 -87
+88 -88
EOF
